/*********************************************
 * OPL 12.10.0.0 Data
 * Author: Thomas
 * Creation Date: 14 avr. 2020 at 14:58:38
 *********************************************/

 arcList = {<1, 2, 3, 1>, <1,4,3,1>, <2,3,3,1>, <2,4,2,1>, <4,5,2,1>, <3,5,4,1>, <3,6,2,1>, <5,6,3,1>};
 source = 1;
 puit = 6;
 nSommets =6;